SECTION Graph
Nodes 538
Edges 1088
E 1 489 12
E 1 492 7
E 2 3 14
E 2 490 12
E 3 4 1
E 3 497 12
E 4 498 12
E 5 6 1
E 5 159 21
E 6 7 14
E 6 160 21
E 7 8 1
E 7 161 21
E 8 135 7
E 8 162 21
E 9 10 1
E 9 480 7
E 9 481 6
E 10 11 14
E 10 483 6
E 11 12 1
E 11 493 6
E 12 494 6
E 13 14 1
E 13 435 15
E 13 445 7
E 13 458 1
E 14 15 14
E 14 437 15
E 14 461 1
E 15 16 1
E 15 471 3
E 15 473 1
E 16 472 3
E 16 474 1
E 16 481 7
E 17 18 1
E 17 21 23
E 17 44 7
E 18 19 14
E 18 22 23
E 19 20 1
E 19 23 23
E 20 24 23
E 21 22 1
E 21 48 7
E 21 433 18
E 22 23 14
E 22 434 18
E 23 24 1
E 23 455 18
E 24 456 18
E 25 26 1
E 25 405 7
E 25 417 1
E 25 429 2
E 26 27 14
E 26 420 1
E 26 430 2
E 27 28 1
E 27 443 1
E 27 451 2
E 28 445 1
E 28 452 2
E 28 458 7
E 29 30 1
E 29 346 17
E 29 358 7
E 29 384 2
E 30 31 14
E 30 349 17
E 30 387 2
E 31 32 1
E 31 375 17
E 31 411 2
E 32 379 17
E 32 415 2
E 33 34 1
E 33 64 15
E 33 340 31
E 34 35 14
E 34 343 31
E 35 36 1
E 35 366 31
E 36 370 31
E 37 38 1
E 37 476 7
E 37 486 1
E 38 39 14
E 38 488 1
E 39 40 1
E 39 495 1
E 40 496 1
E 41 42 1
E 41 431 19
E 41 448 7
E 41 486 24
E 42 43 14
E 42 432 19
E 42 488 24
E 43 44 1
E 43 453 19
E 43 495 24
E 44 454 19
E 44 496 24
E 45 46 1
E 45 385 18
E 45 404 7
E 45 431 4
E 46 47 14
E 46 388 18
E 46 432 4
E 47 48 1
E 47 412 18
E 47 453 4
E 48 416 18
E 48 454 4
E 49 50 1
E 49 357 7
E 49 372 2
E 49 383 2
E 50 51 14
E 50 378 2
E 50 386 2
E 51 52 1
E 51 401 2
E 51 409 2
E 52 405 2
E 52 413 2
E 52 429 7
E 53 54 1
E 53 322 7
E 53 334 2
E 53 339 2
E 54 55 14
E 54 336 2
E 54 342 2
E 55 56 1
E 55 356 2
E 55 365 2
E 56 358 2
E 56 369 2
E 56 384 7
E 57 58 1
E 57 279 7
E 57 290 2
E 57 300 2
E 58 59 14
E 58 295 2
E 58 304 2
E 59 60 1
E 59 318 2
E 59 328 2
E 60 323 2
E 60 331 2
E 60 340 7
E 61 62 1
E 61 88 7
E 61 290 21
E 62 63 14
E 62 295 21
E 63 64 1
E 63 318 21
E 64 323 21
E 65 66 1
E 65 447 8
E 65 449 7
E 65 463 1
E 66 67 14
E 66 450 8
E 66 464 1
E 67 68 1
E 67 444 24
E 67 475 1
E 68 448 24
E 68 476 1
E 68 486 7
E 69 70 1
E 69 361 7
E 69 371 4
E 69 394 5
E 70 71 14
E 70 377 4
E 70 396 5
E 71 72 1
E 71 400 4
E 71 425 5
E 72 404 4
E 72 428 5
E 72 431 7
E 73 74 1
E 73 321 7
E 73 333 2
E 73 337 1
E 74 75 14
E 74 335 2
E 74 338 1
E 75 76 1
E 75 355 2
E 75 362 1
E 76 357 2
E 76 364 1
E 76 383 7
E 77 78 1
E 77 278 7
E 77 289 2
E 77 297 1
E 78 79 14
E 78 294 2
E 78 299 1
E 79 80 1
E 79 317 2
E 79 325 1
E 80 322 2
E 80 327 1
E 80 339 7
E 81 82 1
E 81 228 8
E 81 232 7
E 81 250 2
E 82 83 14
E 82 233 8
E 82 253 2
E 83 84 1
E 83 260 8
E 83 276 2
E 84 261 8
E 84 279 2
E 84 290 7
E 85 86 1
E 85 204 9
E 85 228 13
E 86 87 14
E 86 233 13
E 87 88 1
E 87 260 13
E 88 261 13
E 89 90 1
E 89 408 7
E 89 423 1
E 90 91 14
E 90 427 1
E 91 92 1
E 91 446 1
E 92 449 1
E 92 463 7
E 93 94 1
E 93 348 14
E 93 354 7
E 93 403 16
E 94 350 14
E 94 389 6
E 94 407 16
E 95 96 1
E 95 376 14
E 95 393 6
E 95 436 16
E 96 381 14
E 96 419 7
E 96 439 16
E 97 98 1
E 97 188 11
E 97 192 7
E 97 207 8
E 98 99 14
E 98 190 11
E 98 211 8
E 99 100 1
E 99 202 11
E 99 227 8
E 100 204 11
E 100 228 7
E 100 232 8
E 101 102 2
E 101 350 6
E 101 351 5
E 101 389 14
E 102 352 5
E 102 376 6
E 102 393 14
E 103 104 1
E 103 326 16
E 103 347 7
E 103 380 9
E 104 105 14
E 104 329 16
E 104 382 9
E 105 106 1
E 105 353 16
E 105 406 9
E 106 354 16
E 106 403 7
E 106 408 9
E 107 108 1
E 107 234 7
E 107 245 1
E 107 287 22
E 108 109 14
E 108 247 1
E 108 291 22
E 109 110 1
E 109 271 1
E 109 315 22
E 110 273 1
E 110 292 7
E 110 319 22
E 111 112 1
E 111 200 7
E 111 213 1
E 111 242 18
E 112 113 14
E 112 215 1
E 112 244 18
E 113 114 1
E 113 235 1
E 113 269 18
E 114 237 1
E 114 251 7
E 114 270 18
E 115 116 1
E 115 179 7
E 115 187 1
E 115 206 18
E 116 117 14
E 116 189 1
E 116 210 18
E 117 118 1
E 117 201 1
E 117 226 18
E 118 203 1
E 118 218 7
E 118 231 18
E 119 120 1
E 119 146 7
E 119 208 22
E 119 311 35
E 120 121 14
E 120 212 22
E 120 312 35
E 121 122 1
E 121 229 22
E 121 344 35
E 122 234 22
E 122 287 7
E 122 347 35
E 123 124 1
E 123 183 18
E 123 194 7
E 123 205 2
E 124 125 14
E 124 186 18
E 124 209 2
E 125 126 1
E 125 197 18
E 125 225 2
E 126 200 18
E 126 230 2
E 126 242 7
E 127 128 1
E 127 166 18
E 127 173 7
E 127 181 2
E 128 129 14
E 128 168 18
E 128 184 2
E 129 130 1
E 129 176 18
E 129 195 2
E 130 179 18
E 130 198 2
E 130 206 7
E 131 132 1
E 131 135 21
E 131 162 7
E 131 165 2
E 132 133 14
E 132 136 21
E 132 167 2
E 133 134 1
E 133 169 10
E 133 175 2
E 134 170 10
E 134 177 2
E 134 182 7
E 135 136 1
E 136 137 14
E 137 138 1
E 137 169 11
E 138 170 11
E 138 188 30
E 139 140 1
E 139 266 10
E 140 141 14
E 140 268 10
E 141 142 1
E 141 298 10
E 142 301 10
E 142 380 31
E 143 144 1
E 143 147 23
E 143 266 35
E 144 145 14
E 144 148 23
E 144 268 35
E 145 146 1
E 145 149 23
E 145 298 35
E 146 150 23
E 146 301 35
E 147 148 1
E 147 178 2
E 148 149 14
E 148 180 2
E 149 150 1
E 149 193 2
E 150 194 2
E 150 205 7
E 151 152 1
E 151 163 2
E 151 178 19
E 152 153 14
E 152 164 2
E 152 180 19
E 153 154 1
E 153 171 2
E 153 193 19
E 154 173 2
E 154 181 7
E 154 194 19
E 155 156 1
E 155 159 2
E 155 163 19
E 156 157 14
E 156 160 2
E 156 164 19
E 157 158 1
E 157 161 2
E 157 171 19
E 158 162 2
E 158 165 7
E 158 173 19
E 159 160 1
E 160 161 14
E 161 162 1
E 163 164 1
E 164 171 14
E 165 166 1
E 165 167 1
E 166 168 1
E 167 168 1
E 167 175 14
E 168 176 14
E 169 170 1
E 170 172 7
E 171 173 1
E 172 174 1
E 172 182 10
E 174 185 10
E 174 191 14
E 175 176 1
E 175 177 1
E 176 179 1
E 177 179 1
E 177 187 7
E 178 180 1
E 180 193 14
E 181 183 1
E 181 184 1
E 182 185 1
E 182 187 2
E 183 186 1
E 184 186 1
E 184 195 14
E 185 189 2
E 185 196 14
E 186 197 14
E 187 189 1
E 188 190 1
E 189 201 14
E 190 202 14
E 191 192 1
E 191 196 10
E 192 199 10
E 193 194 1
E 195 197 1
E 195 198 1
E 196 199 1
E 196 201 2
E 197 200 1
E 198 200 1
E 198 213 7
E 199 203 2
E 199 214 7
E 201 203 1
E 202 204 1
E 203 217 7
E 205 208 1
E 205 209 1
E 206 210 1
E 206 213 2
E 207 211 1
E 207 214 2
E 208 212 1
E 209 212 1
E 209 225 14
E 210 215 2
E 210 226 14
E 211 216 2
E 211 227 14
E 212 229 14
E 213 215 1
E 214 216 1
E 214 217 2
E 215 235 14
E 216 219 2
E 216 236 14
E 217 218 1
E 217 219 1
E 218 220 1
E 218 246 18
E 219 220 1
E 219 221 6
E 220 222 6
E 220 248 18
E 221 222 1
E 221 223 2
E 222 224 2
E 222 259 18
E 223 224 1
E 223 239 6
E 224 240 6
E 224 263 18
E 225 229 1
E 225 230 1
E 226 231 1
E 226 235 2
E 227 232 1
E 227 236 2
E 228 233 1
E 229 234 1
E 230 234 1
E 230 245 7
E 231 237 2
E 231 246 7
E 232 238 2
E 233 260 14
E 235 237 1
E 236 238 1
E 236 239 2
E 237 249 7
E 238 241 2
E 238 250 7
E 239 240 1
E 239 241 1
E 240 243 1
E 240 272 18
E 241 243 1
E 241 255 7
E 242 244 1
E 242 245 2
E 243 256 7
E 243 274 18
E 244 247 2
E 244 269 14
E 245 247 1
E 246 248 1
E 246 249 2
E 247 271 14
E 248 252 2
E 248 259 6
E 249 251 1
E 249 252 1
E 250 253 1
E 250 255 2
E 251 254 1
E 251 288 20
E 252 254 1
E 252 262 6
E 253 257 2
E 253 276 14
E 254 264 6
E 254 293 20
E 255 256 1
E 255 257 1
E 256 258 1
E 256 284 16
E 257 258 1
E 257 281 14
E 258 282 14
E 258 286 16
E 259 262 2
E 259 263 2
E 260 261 1
E 262 264 1
E 262 265 2
E 263 265 2
E 263 272 6
E 264 267 2
E 264 303 18
E 265 267 1
E 265 275 6
E 266 268 1
E 267 277 6
E 267 307 18
E 268 298 14
E 269 270 1
E 269 271 2
E 270 273 2
E 270 303 14
E 271 273 1
E 272 274 1
E 272 275 2
E 273 288 7
E 274 278 2
E 274 289 7
E 275 277 1
E 275 278 1
E 276 279 1
E 276 281 2
E 277 280 1
E 277 316 20
E 278 280 1
E 279 283 2
E 280 297 7
E 280 321 20
E 281 282 1
E 281 283 1
E 282 285 1
E 282 313 16
E 283 285 1
E 283 300 7
E 284 286 1
E 284 289 2
E 285 314 16
E 286 294 2
E 286 313 14
E 287 291 1
E 287 302 5
E 288 292 1
E 288 293 1
E 289 294 1
E 290 295 1
E 291 305 5
E 291 315 14
E 292 296 1
E 292 348 27
E 293 296 1
E 293 306 6
E 294 317 14
E 295 318 14
E 296 308 6
E 296 350 27
E 297 299 1
E 297 333 18
E 298 301 1
E 299 325 14
E 299 335 18
E 300 304 1
E 300 334 17
E 301 311 7
E 302 305 1
E 302 326 14
E 303 306 2
E 303 307 2
E 304 328 14
E 304 336 17
E 305 329 14
E 305 330 14
E 306 308 1
E 306 309 2
E 307 309 2
E 307 333 14
E 308 310 2
E 308 351 22
E 309 310 1
E 309 316 6
E 310 320 6
E 310 352 22
E 311 312 1
E 312 344 14
E 313 314 1
E 313 317 2
E 314 322 2
E 314 334 7
E 315 319 1
E 315 330 5
E 316 320 1
E 316 321 1
E 317 322 1
E 318 323 1
E 319 332 5
E 319 351 14
E 320 324 1
E 320 359 22
E 321 324 1
E 324 337 7
E 324 361 22
E 325 327 1
E 325 355 18
E 326 329 1
E 327 341 7
E 327 357 18
E 328 331 1
E 328 356 17
E 329 353 14
E 330 332 1
E 330 353 14
E 331 346 7
E 331 358 17
E 332 348 7
E 332 354 14
E 333 335 1
E 334 336 1
E 335 355 14
E 336 356 14
E 337 338 1
E 337 371 18
E 338 362 14
E 338 377 18
E 339 341 1
E 339 342 1
E 340 343 1
E 340 346 2
E 341 345 1
E 341 360 12
E 342 345 1
E 342 365 14
E 343 349 2
E 343 366 14
E 344 347 1
E 345 363 12
E 345 368 14
E 346 349 1
E 348 350 1
E 349 375 14
E 351 352 2
E 352 359 6
E 353 354 1
E 355 357 1
E 356 358 1
E 359 361 1
E 359 376 5
E 360 363 1
E 360 367 3
E 361 381 5
E 362 364 1
E 362 400 18
E 363 373 3
E 363 397 14
E 364 385 7
E 364 404 18
E 365 368 1
E 365 369 1
E 366 370 1
E 366 375 2
E 367 372 1
E 367 373 1
E 368 374 1
E 368 397 12
E 369 374 1
E 370 379 2
E 371 377 1
E 372 378 1
E 373 378 1
E 373 399 14
E 374 390 7
E 374 398 12
E 375 379 1
E 376 381 1
E 377 400 14
E 378 401 14
E 379 392 7
E 380 382 1
E 381 394 7
E 382 406 14
E 383 385 1
E 383 386 1
E 384 387 1
E 384 390 3
E 385 388 1
E 386 388 1
E 386 409 14
E 387 391 3
E 387 411 14
E 388 412 14
E 389 393 2
E 390 391 1
E 390 410 12
E 391 414 12
E 391 418 14
E 392 395 1
E 392 435 22
E 394 396 1
E 394 419 14
E 395 422 14
E 395 437 22
E 396 424 14
E 396 425 14
E 397 398 1
E 397 399 3
E 398 402 3
E 398 410 7
E 399 401 1
E 399 402 1
E 400 404 1
E 401 405 1
E 402 405 1
E 402 417 7
E 403 407 1
E 403 423 8
E 406 408 1
E 407 427 8
E 407 436 14
E 409 412 1
E 409 413 1
E 410 414 1
E 410 417 3
E 411 415 1
E 411 418 3
E 412 416 1
E 413 416 1
E 414 420 3
E 414 441 14
E 415 421 3
E 416 433 7
E 417 420 1
E 418 421 1
E 418 441 12
E 419 424 1
E 419 447 16
E 420 443 14
E 421 435 7
E 421 442 12
E 422 426 1
E 422 457 22
E 423 427 1
E 424 444 14
E 424 450 16
E 425 428 1
E 425 444 14
E 426 438 7
E 426 459 22
E 427 446 14
E 428 448 14
E 429 430 1
E 429 433 3
E 430 434 3
E 430 451 14
E 431 432 1
E 432 453 14
E 433 434 1
E 434 455 14
E 435 437 1
E 436 439 1
E 436 446 8
E 437 457 14
E 438 440 1
E 438 467 22
E 439 447 7
E 439 449 8
E 440 460 14
E 440 468 22
E 441 442 1
E 441 443 3
E 442 445 3
E 442 471 22
E 443 445 1
E 444 448 1
E 446 449 1
E 447 450 1
E 451 452 1
E 451 455 3
E 452 456 3
E 453 454 1
E 455 456 1
E 456 465 7
E 457 459 1
E 457 471 12
E 458 461 1
E 458 465 5
E 459 467 7
E 459 472 12
E 460 462 1
E 460 482 22
E 461 466 5
E 461 473 14
E 462 469 7
E 462 484 22
E 463 464 1
E 464 475 14
E 465 466 1
E 466 478 14
E 467 468 1
E 467 477 12
E 468 479 12
E 468 482 14
E 469 470 1
E 469 489 22
E 470 485 14
E 470 490 22
E 471 472 1
E 472 477 7
E 473 474 1
E 473 478 5
E 474 480 5
E 475 476 1
E 477 479 1
E 477 481 3
E 478 480 1
E 479 483 3
E 479 491 14
E 481 483 1
E 482 484 1
E 482 491 12
E 483 493 14
E 484 489 7
E 484 492 12
E 485 487 1
E 485 497 22
E 486 488 1
E 487 498 22
E 488 495 14
E 489 490 1
E 490 497 14
E 491 492 1
E 491 493 3
E 492 494 3
E 493 494 1
E 495 496 1
E 497 498 1
E 1 499 100000
E 2 499 100000
E 3 499 100000
E 4 499 100000
E 5 500 100000
E 6 500 100000
E 7 500 100000
E 8 500 100000
E 9 501 100000
E 10 501 100000
E 11 501 100000
E 12 501 100000
E 13 502 100000
E 14 502 100000
E 15 502 100000
E 16 502 100000
E 17 503 100000
E 18 503 100000
E 19 503 100000
E 20 503 100000
E 21 504 100000
E 22 504 100000
E 23 504 100000
E 24 504 100000
E 25 505 100000
E 26 505 100000
E 27 505 100000
E 28 505 100000
E 29 506 100000
E 30 506 100000
E 31 506 100000
E 32 506 100000
E 33 507 100000
E 34 507 100000
E 35 507 100000
E 36 507 100000
E 37 508 100000
E 38 508 100000
E 39 508 100000
E 40 508 100000
E 41 509 100000
E 42 509 100000
E 43 509 100000
E 44 509 100000
E 45 510 100000
E 46 510 100000
E 47 510 100000
E 48 510 100000
E 49 511 100000
E 50 511 100000
E 51 511 100000
E 52 511 100000
E 53 512 100000
E 54 512 100000
E 55 512 100000
E 56 512 100000
E 57 513 100000
E 58 513 100000
E 59 513 100000
E 60 513 100000
E 61 514 100000
E 62 514 100000
E 63 514 100000
E 64 514 100000
E 65 515 100000
E 66 515 100000
E 67 515 100000
E 68 515 100000
E 69 516 100000
E 70 516 100000
E 71 516 100000
E 72 516 100000
E 73 517 100000
E 74 517 100000
E 75 517 100000
E 76 517 100000
E 77 518 100000
E 78 518 100000
E 79 518 100000
E 80 518 100000
E 81 519 100000
E 82 519 100000
E 83 519 100000
E 84 519 100000
E 85 520 100000
E 86 520 100000
E 87 520 100000
E 88 520 100000
E 89 521 100000
E 90 521 100000
E 91 521 100000
E 92 521 100000
E 93 522 100000
E 94 522 100000
E 95 522 100000
E 96 522 100000
E 97 523 100000
E 98 523 100000
E 99 523 100000
E 100 523 100000
E 101 524 100000
E 102 524 100000
E 103 525 100000
E 104 525 100000
E 105 525 100000
E 106 525 100000
E 107 526 100000
E 108 526 100000
E 109 526 100000
E 110 526 100000
E 111 527 100000
E 112 527 100000
E 113 527 100000
E 114 527 100000
E 115 528 100000
E 116 528 100000
E 117 528 100000
E 118 528 100000
E 119 529 100000
E 120 529 100000
E 121 529 100000
E 122 529 100000
E 123 530 100000
E 124 530 100000
E 125 530 100000
E 126 530 100000
E 127 531 100000
E 128 531 100000
E 129 531 100000
E 130 531 100000
E 131 532 100000
E 132 532 100000
E 133 532 100000
E 134 532 100000
E 135 533 100000
E 136 533 100000
E 137 533 100000
E 138 533 100000
E 139 534 100000
E 140 534 100000
E 141 534 100000
E 142 534 100000
E 143 535 100000
E 144 535 100000
E 145 535 100000
E 146 535 100000
E 147 536 100000
E 148 536 100000
E 149 536 100000
E 150 536 100000
E 151 537 100000
E 152 537 100000
E 153 537 100000
E 154 537 100000
E 155 538 100000
E 156 538 100000
E 157 538 100000
E 158 538 100000
END

SECTION Terminals
Terminals 40
T 499
T 500
T 501
T 502
T 503
T 504
T 505
T 506
T 507
T 508
T 509
T 510
T 511
T 512
T 513
T 514
T 515
T 516
T 517
T 518
T 519
T 520
T 521
T 522
T 523
T 524
T 525
T 526
T 527
T 528
T 529
T 530
T 531
T 532
T 533
T 534
T 535
T 536
T 537
T 538
END

SECTION Tree Decomposition
c We do not guarantee that this tree decomposition has minimum width.
s td 440 27 538
b 1 524 101 102
b 2 487 485 498
b 3 2 3 490 499
b 4 36 507 35 370
b 5 485 498 497 470
b 6 498 497 4 470
b 7 139 534 140 266
b 8 12 501 11 494
b 9 40 508 39 496
b 10 5 6 500 159
b 11 20 503 19 24
b 12 497 3 4 470 490
b 13 3 4 470 490 499
b 14 470 490 499 469
b 15 490 499 469 489
b 16 499 469 489 1
b 17 469 489 1 462
b 18 489 1 462 484
b 19 1 462 484 492
b 20 462 484 460 492
b 21 484 460 482 492
b 22 460 482 492 440
b 23 382 380 104 406
b 24 392 395 435 379
b 25 393 389 102 95
b 26 408 406 106 89
b 27 413 416 52 409
b 28 415 32 411 421
b 29 422 426 457 395
b 30 423 427 403 89
b 31 428 448 72 425
b 32 438 440 467 426
b 33 450 66 424 447
b 34 452 451 456 28
b 35 372 367 378 49
b 36 369 365 56 374
b 37 463 464 65 92
b 38 465 466 458 456
b 39 454 453 44 48
b 40 478 480 473 466
b 41 475 476 464 67
b 42 360 367 363 341
b 43 344 347 121 312
b 44 474 480 473 16
b 45 371 377 337 69
b 46 166 165 127 168
b 47 169 137 133 170
b 48 172 182 174 170
b 49 178 147 180 151
b 50 163 155 164 151
b 51 183 181 186 123
b 52 188 190 97 138
b 53 191 192 174 196
b 54 202 204 190 99
b 55 207 211 97 214
b 56 208 212 205 119
b 57 221 223 222 219
b 58 261 260 88 84
b 59 284 286 256 289
b 60 285 314 282 283
b 61 302 326 287 305
b 62 311 301 119 312
b 63 323 318 64 60
b 64 533 136 137 135 138
b 65 6 500 7 159 160
b 66 500 7 159 160 8
b 67 7 159 160 161 8
b 68 527 113 112 114 111
b 69 515 65 66 67 68
b 70 517 74 76 75 73
b 71 516 71 70 72 69
b 72 525 105 104 106 103
b 73 528 116 118 117 115
b 74 513 58 59 57 60
b 75 509 43 42 44 41
b 76 512 55 53 54 56
b 77 511 50 51 52 49
b 78 507 35 34 370 33
b 79 35 34 370 366 33
b 80 34 370 366 343 33
b 81 508 39 38 496 37
b 82 39 38 495 496 37
b 83 38 495 496 488 37
b 84 501 11 10 494 9
b 85 11 10 494 493 9
b 86 10 494 493 483 9
b 87 136 137 132 135 138
b 88 523 98 99 100 97
b 89 482 492 491 468 440
b 90 536 148 147 150 149
b 91 494 493 492 483 9
b 92 493 492 491 483 9
b 93 503 19 18 24 17
b 94 19 18 23 24 17
b 95 18 22 23 24 17
b 96 514 63 62 64 61
b 97 63 62 318 64 61
b 98 62 318 295 64 61
b 99 518 78 79 80 77
b 100 526 109 107 108 110
b 101 530 125 123 124 126
b 102 504 22 23 24 21
b 103 535 145 143 144 146
b 104 495 496 488 43 37
b 105 496 488 43 44 37
b 106 534 140 141 266 142
b 107 140 141 266 268 142
b 108 141 266 268 298 142
b 109 505 26 27 28 25
b 110 502 14 15 16 13
b 111 537 152 153 151 154
b 112 532 133 132 131 134
b 113 159 160 161 155 8
b 114 160 156 161 155 8
b 115 370 366 343 33 379
b 116 366 343 33 375 379
b 117 531 128 129 127 130
b 118 521 90 91 89 92
b 119 90 91 427 89 92
b 120 91 427 446 89 92
b 121 520 87 86 88 85
b 122 87 86 260 88 85
b 123 86 260 88 233 85
b 124 519 83 81 82 84
b 125 266 268 298 143 142
b 126 268 298 143 144 142
b 127 538 157 156 155 158
b 128 510 46 47 48 45
b 129 506 31 32 30 29
b 130 529 120 121 122 119
b 131 522 95 93 94 96
b 132 389 101 102 95 94
b 133 480 473 466 9 16
b 134 476 464 67 37 68
b 135 347 121 122 312 103
b 136 204 190 99 85 100
b 137 380 104 406 103 142
b 138 192 199 174 196 97
b 139 223 224 239 222 219
b 140 326 329 103 287 305
b 141 22 23 24 17 434 21
b 142 23 24 455 17 434 21
b 143 24 455 17 434 21 456
b 144 455 17 434 21 451 456
b 145 98 190 99 211 100 97
b 146 488 43 42 486 44 37
b 147 137 133 132 135 170 138
b 148 492 491 468 483 440 9
b 149 491 468 483 479 440 9
b 150 468 483 479 440 467 9
b 151 483 479 440 481 467 9
b 152 479 440 481 467 477 9
b 153 440 481 467 477 426 9
b 154 481 467 477 426 9 16
b 155 467 477 459 426 9 16
b 156 477 459 426 472 9 16
b 157 459 426 472 457 9 16
b 158 426 472 457 9 16 395
b 159 472 457 9 16 395 471
b 160 457 9 16 437 395 471
b 161 17 434 21 451 456 44
b 162 298 145 143 144 301 142
b 163 120 121 122 212 119 312
b 164 473 461 466 15 9 16
b 165 343 33 375 349 340 379
b 166 33 375 349 340 64 379
b 167 375 349 340 31 64 379
b 168 105 104 406 353 106 103
b 169 157 156 161 155 171 158
b 170 427 446 407 403 89 92
b 171 152 153 164 180 151 154
b 172 260 88 233 83 85 84
b 173 88 233 83 85 61 84
b 174 318 295 59 64 60 61
b 175 156 161 155 8 164 171 158
b 176 161 155 162 8 164 171 158
b 177 155 162 8 164 171 151 158
b 178 43 42 486 453 44 37 41
b 179 42 486 453 432 44 37 41
b 180 486 453 432 44 37 41 68
b 181 162 8 164 171 151 158 131
b 182 8 164 171 151 158 131 135
b 183 104 406 329 353 106 103 142
b 184 406 329 353 106 89 103 142
b 185 355 357 75 325 335
b 186 342 339 365 54 345
b 187 352 102 359 310 351
b 188 348 292 350 93 332
b 189 346 349 340 29 331
b 190 354 353 106 93 332
b 191 396 394 424 70 425
b 192 405 401 402 52 25
b 193 368 365 345 397 374
b 194 419 394 424 447 96
b 195 376 102 95 359 381
b 196 383 385 76 49 386
b 197 387 30 411 384 391
b 198 398 402 397 410 374
b 199 373 367 363 399 378
b 200 367 363 399 378 49 341
b 201 418 411 391 421 441
b 202 429 430 433 52 25
b 203 336 54 304 356 334
b 204 412 416 47 409 388
b 205 442 471 445 421 441
b 206 333 297 335 73 307
b 207 439 447 96 436 449
b 208 444 448 67 424 425
b 209 443 445 27 420 441
b 210 390 384 391 410 374
b 211 431 432 45 41 72
b 212 361 359 69 324 381
b 213 362 338 400 364 75
b 214 167 165 132 168 175
b 215 173 171 158 127 154
b 216 176 129 168 175 179
b 217 177 187 134 175 179
b 218 321 73 280 316 324
b 219 320 359 310 316 324
b 220 358 29 331 56 356
b 221 185 182 174 189 196
b 222 317 79 294 313 322
b 223 184 181 128 195 186
b 224 193 153 180 149 194
b 225 197 125 200 195 186
b 226 201 117 189 196 203
b 227 198 200 195 130 213
b 228 206 115 130 210 213
b 229 404 400 364 45 72
b 230 309 306 310 307 316
b 231 308 296 306 310 351
b 232 209 212 205 124 225
b 233 215 112 210 213 235
b 234 216 211 214 219 236
b 235 217 203 218 214 219
b 236 220 222 218 248 219
b 237 226 117 210 231 235
b 238 227 99 211 232 236
b 239 228 233 81 85 100
b 240 229 121 212 234 225
b 241 230 245 234 126 225
b 242 237 249 114 231 235
b 243 238 232 250 236 241
b 244 240 224 239 272 243
b 245 242 245 126 111 244
b 246 293 296 306 254 288
b 247 246 249 231 218 248
b 248 291 108 287 305 315
b 249 247 108 245 244 271
b 250 251 249 114 254 288
b 251 252 249 254 248 262
b 252 253 82 250 257 276
b 253 255 256 250 257 241
b 254 259 222 263 248 262
b 255 258 286 256 282 257
b 256 264 303 254 262 267
b 257 265 263 275 262 267
b 258 417 402 410 25 420
b 259 269 113 244 271 270
b 260 273 271 110 270 288
b 261 274 278 272 243 289
b 262 277 275 267 280 316
b 263 414 391 410 420 441
b 264 279 57 84 276 283
b 265 281 282 257 276 283
b 266 290 295 57 61 84
b 267 299 78 297 325 335
b 268 300 57 304 283 334
b 269 319 351 110 315 332
b 270 327 357 341 80 325
b 271 328 59 331 304 356
b 272 330 353 305 315 332
b 273 148 144 147 150 180 149
b 274 50 51 378 52 49 386
b 275 51 378 401 52 409 49 386
b 276 101 102 95 350 351 94
b 277 199 174 196 203 97 214
b 278 55 365 53 54 56 356
b 279 71 400 70 72 425 69
b 280 464 65 66 67 37 68 92
b 281 461 466 14 15 9 16 458
b 282 466 14 15 9 16 458 456
b 283 145 143 144 146 301 149 142
b 284 143 144 146 147 301 149 142
b 285 144 146 147 301 150 180 149 142
b 286 146 147 301 150 180 149 119 142
b 287 147 301 150 180 149 151 119 142
b 288 301 150 180 149 151 119 312 142
b 289 190 99 211 85 100 97 138
b 290 363 399 378 345 397 49 341
b 291 14 15 9 16 437 458 13 456
b 292 15 9 16 437 458 13 471 456
b 293 9 16 437 458 13 395 471 456
b 294 437 458 13 395 435 471 456
b 295 458 13 395 435 471 456 28
b 296 13 395 435 471 445 456 28
b 297 395 435 471 445 456 28 379
b 298 435 471 445 456 28 379 421
b 299 471 445 456 28 379 421 441
b 300 109 107 108 271 110 315
b 301 26 430 27 28 25 420
b 302 116 118 117 189 115 210
b 303 46 432 47 48 388 45
b 304 377 337 338 400 70 69
b 305 58 295 59 57 60 304
b 306 74 338 76 75 335 73
b 307 446 407 403 89 92 436 449
b 308 407 403 89 94 92 436 449
b 309 434 21 451 430 456 433 44
b 310 21 451 430 456 433 44 48
b 311 337 338 400 70 73 69 324
b 312 99 211 85 100 232 97 138 236
b 313 445 456 27 28 379 420 421 441
b 314 451 430 456 27 28 433 44 48
b 315 399 378 401 402 345 397 49 341
b 316 233 83 81 82 85 100 61 84
b 317 83 81 82 85 100 61 84 276
b 318 295 59 57 64 60 304 61 84
b 319 314 282 283 313 322 334
b 320 182 174 187 189 196 134 170
b 321 224 239 222 263 272 219 243
b 322 286 256 282 257 289 294 313
b 323 329 353 106 89 103 142 287 305
b 324 153 164 171 180 149 151 194 154
b 325 403 106 89 93 94 92 436 449
b 326 65 66 67 447 37 68 92 449
b 327 66 67 424 447 37 68 92 449
b 328 239 222 263 272 219 236 241 243
b 329 81 82 85 100 232 250 61 84 276
b 330 82 85 100 232 250 257 61 84 276
b 331 448 67 424 41 68 72 425
b 332 416 433 47 48 52 409 388
b 333 165 132 158 131 127 168 175
b 334 181 128 195 186 127 123 154
b 335 303 306 254 270 262 267 307
b 336 349 340 31 30 29 64 331 379
b 337 340 31 30 29 64 60 331 379
b 338 31 32 30 411 29 64 60 331 379
b 339 32 30 411 29 64 60 331 379 421
b 340 102 95 359 350 310 351 94 381
b 341 453 432 44 47 48 37 41 68
b 342 118 117 189 203 115 210 231 218
b 343 121 122 212 234 119 225 312 103
b 344 122 212 234 119 225 312 103 287
b 345 59 57 64 60 331 304 356 61 84
b 346 117 189 196 203 115 210 231 235 218
b 347 211 85 100 232 97 138 214 219 236
b 348 212 234 205 119 124 225 312 103 287
b 349 339 365 53 54 345 341 80
b 350 385 364 76 388 45 49 386
b 351 278 272 275 77 243 280 289
b 352 113 112 114 111 235 244 271 270
b 353 112 114 111 210 213 235 244 271 270
b 354 107 108 245 234 271 287 110 315
b 355 108 245 234 244 271 287 305 110 315
b 356 133 132 131 135 134 170 175 138
b 357 150 180 149 151 194 205 119 312 142
b 358 30 411 29 384 391 64 60 331 379 421
b 359 411 29 384 391 64 60 331 379 421 441
b 360 292 296 350 93 110 288 332
b 361 128 129 195 186 127 123 154 168 130
b 362 129 195 186 127 123 154 168 130 175 179
b 363 174 187 189 196 203 134 170 97 214
b 364 378 401 402 345 397 52 409 49 341 386
b 365 401 402 345 397 52 25 409 49 341 386
b 366 67 424 447 37 41 68 72 425 92 449
b 367 164 171 180 149 151 194 158 131 135 154
b 368 171 180 149 151 194 158 131 135 127 154
b 369 132 158 131 135 127 168 134 170 175 138
b 370 29 384 391 64 60 331 56 356 379 421 441
b 371 125 200 195 186 123 124 126 225
b 372 78 79 297 80 325 335 77 294
b 373 79 297 80 325 335 77 294 313 322
b 374 357 76 75 49 341 80 325 335
b 375 430 456 27 28 433 44 48 52 25 420
b 376 432 44 47 48 388 45 37 41 68 72
b 377 394 424 447 70 425 69 96 381
b 378 256 282 250 257 241 243 289 294 313
b 379 95 359 350 310 351 93 94 96 381 436
b 380 353 106 89 103 142 287 305 93 315 332
b 381 200 195 186 123 124 126 225 130 111 213
b 382 384 391 64 60 331 410 56 356 374 379 421 441
b 383 391 64 60 331 410 56 356 374 379 420 421 441
b 384 222 263 272 218 248 262 219 236 241 243
b 385 263 272 275 218 248 262 267 219 236 241 243
b 386 456 27 28 433 44 48 52 25 379 420 421 441
b 387 433 44 47 48 52 25 379 409 420 421 441 388
b 388 249 114 231 235 254 288 218 248 262
b 389 365 53 54 345 397 56 356 374 341 80
b 390 53 54 345 397 56 356 374 341 80 322 334
b 391 54 345 397 56 304 356 374 341 80 322 334
b 392 296 306 350 310 351 93 110 254 288 332
b 393 338 400 364 76 75 70 335 73 69 324
b 394 57 64 60 331 304 356 61 84 276 283 334
b 395 187 189 196 203 115 134 170 175 179 97 214
b 396 245 234 126 225 111 244 271 287 305 110 315
b 397 400 364 76 75 45 70 72 425 335 73 69 324
b 398 297 80 325 335 73 77 280 294 307 313 322
b 399 272 275 218 248 262 267 77 219 236 241 243 280 289
b 400 275 218 248 262 267 77 219 236 241 243 280 289 316
b 401 402 345 397 410 374 52 25 409 420 49 341 386
b 402 359 350 310 351 93 94 69 96 316 324 381 436
b 403 180 149 151 194 158 131 135 127 154 205 119 312 142
b 404 194 158 131 135 127 123 154 205 119 312 142
b 405 424 447 37 41 68 70 72 425 69 92 96 381 449
b 406 447 37 41 68 70 72 425 69 92 96 381 436 449
b 407 364 76 75 388 45 49 386 70 72 425 335 73 69 324
b 408 282 250 257 241 243 276 283 289 294 313 322 334
b 409 189 196 203 115 134 170 175 179 210 231 235 218 97 214
b 410 203 115 134 170 175 179 210 231 235 218 97 214 219
b 411 115 130 134 170 175 179 210 213 231 235 218 97 214 219
b 412 106 89 103 142 287 305 93 94 315 332 92 436 449
b 413 85 100 232 250 257 61 84 97 138 214 219 236 276
b 414 232 250 257 61 84 97 138 214 219 236 241 276
b 415 76 75 388 45 49 341 386 70 72 425 80 325 335 73 69 324
b 416 195 186 127 123 154 168 124 126 225 130 175 179 111 213
b 417 158 131 135 127 123 154 168 205 119 312 134 170 175 142 138
b 418 114 111 210 213 231 235 244 271 254 270 288 218 248 262
b 419 234 205 119 124 126 225 312 111 244 271 103 287 305 110 315
b 420 306 350 310 351 93 110 254 270 288 332 262 267 307 316
b 421 44 47 48 52 25 379 409 420 421 441 388 45 37 41 68 72
b 422 345 397 410 56 304 356 374 52 25 409 420 49 341 386 80 322 334
b 423 127 123 154 168 205 119 124 126 225 312 130 134 170 175 179 111 213 142 138
b 424 64 60 331 410 56 304 356 374 379 420 421 441 61 84 276 283 334
b 425 250 257 61 84 97 138 214 219 236 241 243 276 283 289 294 313 322 334
b 426 410 56 304 356 374 52 25 379 409 420 421 441 49 341 386 80 61 84 276 283 322 334
b 427 350 310 351 93 94 110 254 270 288 332 262 267 69 96 307 316 324 381 436
b 428 351 93 94 110 254 270 288 315 332 262 267 69 96 307 316 324 381 436
b 429 52 25 379 409 420 421 441 388 45 49 341 386 37 41 68 72 80 61 84 276 283 322 334
b 430 205 119 124 126 225 312 130 134 170 175 179 111 213 244 271 103 142 287 305 110 315 138
b 431 388 45 49 341 386 37 41 68 70 72 425 80 325 335 73 69 61 84 276 283 322 324 334
b 432 37 41 68 70 72 425 80 325 335 73 69 61 84 92 96 276 283 322 324 334 381 436 449
b 433 80 325 335 73 69 61 77 84 92 96 276 280 283 294 307 313 322 324 334 381 436 449
b 434 73 69 61 77 84 92 96 276 280 283 294 307 313 316 322 324 334 381 436 449
b 435 130 134 170 175 179 111 210 213 231 235 244 271 103 142 287 305 110 315 218 97 138 214 219
b 436 111 210 213 231 235 244 271 103 142 287 305 110 254 270 288 315 218 248 262 97 138 214 219
b 437 103 142 287 305 93 94 110 254 270 288 315 332 218 248 262 92 97 138 214 219 436 449
b 438 93 94 110 254 270 288 315 332 218 248 262 267 69 92 96 97 138 214 219 307 316 324 381 436 449
b 439 218 248 262 267 69 77 92 96 97 138 214 219 236 241 243 280 289 307 316 324 381 436 449
b 440 69 61 77 84 92 96 97 138 214 219 236 241 243 276 280 283 289 294 307 313 316 322 324 334 381 436 449
1 132
132 276
276 340
340 379
379 402
402 427
427 428
428 438
438 437
438 439
439 440
440 434
434 433
433 432
432 431
437 436
436 435
440 425
435 430
431 429
429 426
430 423
426 422
426 424
430 419
431 415
429 421
435 411
415 407
427 420
436 418
423 417
423 416
411 410
439 400
410 409
400 399
432 406
406 405
425 408
425 414
422 401
424 383
437 412
421 387
407 397
414 413
383 382
422 391
424 394
419 396
417 404
409 395
399 385
382 370
391 390
433 398
404 403
421 376
420 392
417 369
416 362
416 381
405 366
401 365
412 380
387 386
397 393
385 384
370 359
390 389
403 368
365 364
386 375
359 358
368 367
419 348
418 353
418 388
409 346
408 378
413 347
413 330
394 345
396 355
395 363
398 373
403 357
362 361
358 339
330 329
339 338
415 374
405 377
412 325
376 341
369 356
381 371
366 327
380 323
386 313
384 328
364 315
375 314
367 324
348 344
344 343
353 352
346 342
347 312
345 318
355 354
373 372
357 288
288 287
287 286
286 285
329 317
338 337
317 316
337 336
327 326
312 289
314 310
313 299
328 321
285 284
315 290
326 280
310 309
299 298
284 283
298 297
297 296
296 295
295 294
294 293
293 292
292 291
291 282
282 281
407 350
420 335
399 351
387 332
392 360
369 333
366 331
393 311
389 349
364 275
367 182
182 181
181 177
177 176
176 175
378 322
363 320
361 334
325 308
341 180
308 307
180 179
179 178
323 184
184 183
354 300
285 273
316 173
336 167
289 145
290 200
293 160
283 162
281 164
311 304
275 274
324 171
175 169
343 163
318 174
342 302
307 170
309 161
178 146
318 305
183 168
173 172
167 166
160 159
161 144
166 165
159 158
144 143
158 157
143 142
157 156
142 141
156 155
155 154
154 153
153 152
152 151
151 150
150 149
149 148
408 319
397 279
376 303
393 306
389 278
375 301
363 277
356 147
324 224
343 135
343 240
352 68
352 259
312 238
318 266
372 99
372 267
317 124
316 239
336 189
326 69
289 136
299 205
321 139
321 244
280 134
283 103
291 110
350 196
335 256
351 261
360 188
333 214
331 208
349 186
175 114
322 255
320 221
334 223
178 75
183 137
300 100
273 90
145 88
200 199
162 126
164 133
274 77
171 111
169 127
163 130
174 98
302 73
170 120
402 212
146 105
305 74
402 219
168 72
172 123
141 102
141 95
165 116
313 209
306 70
279 71
278 76
148 89
277 138
147 87
114 113
126 125
98 97
120 119
105 104
411 228
123 122
116 115
95 94
113 67
125 108
87 64
97 96
119 118
104 83
122 121
115 80
94 93
67 66
108 107
83 82
420 230
80 79
66 65
107 106
82 81
79 78
340 187
410 235
400 262
406 207
408 265
414 243
401 198
340 195
401 258
383 263
434 218
397 229
382 210
391 203
394 264
394 268
396 241
396 245
395 217
385 257
370 220
398 206
428 269
376 211
332 204
392 231
392 246
362 216
381 227
365 192
380 190
380 272
393 213
303 128
384 236
384 254
359 201
389 193
379 131
368 215
375 202
358 197
301 109
348 232
353 233
388 242
388 247
388 250
388 251
346 226
346 237
378 253
347 234
330 252
345 271
436 260
355 248
355 249
148 92
92 91
91 86
86 85
85 84
373 222
361 117
338 129
374 185
374 270
377 191
377 194
356 112
371 101
371 225
323 140
140 61
314 34
288 62
287 49
289 52
280 37
297 24
282 38
332 27
333 46
331 31
177 50
322 59
320 48
334 51
184 26
132 25
200 35
200 42
304 45
174 63
170 30
172 58
158 29
153 32
147 47
135 43
136 54
139 57
134 41
137 23
133 40
133 44
89 22
138 53
22 21
21 20
20 19
19 18
18 17
17 16
16 15
15 14
84 8
106 7
65 10
81 9
78 4
93 11
14 13
13 12
13 3
12 6
6 5
319 60
389 36
348 56
347 55
339 28
341 39
327 33
5 2
END

EOF
